(set-info :original "/tmp/sea-Q0NtMv/matrix_true-unreach-call_true-termination.pp.ms.o.bc")
(set-info :authors "SeaHorn v.0.1.0-rc3")
(declare-rel verifier.error (Bool Bool Bool ))
(declare-rel main@entry (Int ))
(declare-rel main@entry.split ())
(declare-var main@%_0_0 Int )
(declare-var @__VERIFIER_nondet_int_0 Int )
(declare-var main@%_2_0 Int )
(declare-var main@%_4_0 Bool )
(declare-var main@entry_0 Bool )
(declare-var main@entry.split_0 Bool )
(rule (verifier.error false false false))
(rule (verifier.error false true true))
(rule (verifier.error true false true))
(rule (verifier.error true true true))
(rule (main@entry @__VERIFIER_nondet_int_0))
(rule (=> (and (main@entry @__VERIFIER_nondet_int_0)
         true
         (= main@%_0_0 @__VERIFIER_nondet_int_0)
         (= main@%_2_0 @__VERIFIER_nondet_int_0)
         (not main@%_4_0)
         false
         (=> main@entry.split_0 (and main@entry.split_0 main@entry_0))
         main@entry.split_0)
    main@entry.split))
(query main@entry.split)

